$molecule
read                  DBP-C70_conf11.txt
$end

$rem
JOBTYPE               sp        ! single point charge calculation
METHOD                wB97XD
BASIS                 SV        
SYM_IGNORE            TRUE      !
ideriv                0         !
! OMEGA                 114514       ! geometric parameter tuned for geometry
MAX_SCF_CYCLES        5000      !
separate_jk           TRUE      !
derscreen             FALSE     !
purecart              2111      !
scf_convergence       8         ! for SP, default is 5 ; for opt/freq, default is 8
CIS_DYNAMIC_MEM       True      ! using dynamic memory for large TDDFT calculation
MEM_STATIC            160000     ! static memory for storing data.
MEM_TOTAL             180000    !
max_cis_cycles        500000    !
CIS_N_ROOTS           25        ! number of excited states
CIS_SINGLETS          true      ! compute singlet excited states, default is true
CIS_TRIPLETS          false     ! compute triplet excited states, default is true
MAX_CIS_SUBSPACE      15000
RPA                   false  ! false: TDA-DFT, true: TDA- and TDDFT , 2: TDDFT
sts_fcd               true      ! compute electronic couplings with FCD method
sts_donor             71-170    ! donor atom index
sts_acceptor          1-70      ! acceptor atom index
POP_MULLIKEN          -1        ! get Mulliken Charge for ground and excited states
$end

