%chk=THF.chk
%mem=2gb
%nprocshared=8
# b3lyp/6-31g* opt

opt

0 1
 C1       28.086  32.967   3.199  
 H1       27.645  32.261   3.907  
 H2       27.764  34.002   3.343  
 C2       27.850  32.533   1.729  
 H3       26.946  33.026   1.366  
 H4       27.847  31.455   1.551  
 C3       29.111  33.128   0.990  
 H5       28.899  34.078   0.494  
 H6       29.486  32.455   0.217  
 C4       30.121  33.421   2.165  
 H7       30.358  34.484   2.255  
 H8       31.024  32.825   2.009  
 O1       29.495  32.952   3.366
 
